p cnf 1443
-19 -453
-20 -456
-21 -459
-22 -462
-23 -465
-24 -468
-25 -471
-26 -474
-27 -477
-28 -480
-29 -483
-30 -486
-31 -489
-32 -492
-33 -495
-34 -498
-35 -501
-36 -504
-37 505
-38 506
-39 507
-40 508
-41 509
-42 510
-43 511
-44 512
-45 513
-46 514
-47 515
-48 516
-49 517
-50 518
-51 -20
-51 -21
20 21 51
-52 -22
-52 -23
22 23 52
-53 -24
-53 -25
24 25 53
-54 -26
-54 -27
26 27 54
-55 -28
-55 -29
28 29 55
-56 -30
-56 -31
30 31 56
-57 -32
-57 -33
32 33 57
-58 -34
-58 -35
34 35 58
-59 -36
-59 -37
36 37 59
-60 -38
-60 -39
38 39 60
-61 -40
-61 -41
40 41 61
-62 -42
-62 -43
42 43 62
-63 -44
-63 -45
44 45 63
-64 -46
-64 -47
46 47 64
-65 -48
-65 -49
48 49 65
-66 51
-66 52
-51 -52 66
-67 53
-67 54
-53 -54 67
-68 55
-68 56
-55 -56 68
-69 57
-69 58
-57 -58 69
-70 59
-70 60
-59 -60 70
-71 61
-71 62
-61 -62 71
-72 63
-72 64
-63 -64 72
-73 -50
-73 65
50 -65 73
-74 66
-74 67
-66 -67 74
-75 68
-75 69
-68 -69 75
-76 70
-76 71
-70 -71 76
-77 72
-77 73
-72 -73 77
-78 74
-78 75
-74 -75 78
-79 76
-79 77
-76 -77 79
-80 78
-80 79
-78 -79 80
-81 -19
-81 20
19 -20 81
-82 19
-82 -20
-19 20 82
-83 -81
-83 -82
81 82 83
-84 19
-84 20
-19 -20 84
-85 -19
-85 -83
19 83 85
-86 19
-86 83
-19 -83 86
-87 -85
-87 -86
85 86 87
-88 19
-88 -83
-19 83 88
-89 -84
-89 -88
84 88 89
-90 -20
-90 21
20 -21 90
-91 20
-91 -21
-20 21 91
-92 -90
-92 -91
90 91 92
-93 20
-93 21
-20 -21 93
-94 89
-94 -92
-89 92 94
-95 -89
-95 92
89 -92 95
-96 -94
-96 -95
94 95 96
-97 -89
-97 -92
89 92 97
-98 -93
-98 -97
93 97 98
-99 -21
-99 22
21 -22 99
-100 21
-100 -22
-21 22 100
-101 -99
-101 -100
99 100 101
-102 21
-102 22
-21 -22 102
-103 98
-103 -101
-98 101 103
-104 -98
-104 101
98 -101 104
-105 -103
-105 -104
103 104 105
-106 -98
-106 -101
98 101 106
-107 -102
-107 -106
102 106 107
-108 -22
-108 23
22 -23 108
-109 22
-109 -23
-22 23 109
-110 -108
-110 -109
108 109 110
-111 22
-111 23
-22 -23 111
-112 107
-112 -110
-107 110 112
-113 -107
-113 110
107 -110 113
-114 -112
-114 -113
112 113 114
-115 -107
-115 -110
107 110 115
-116 -111
-116 -115
111 115 116
-117 -23
-117 24
23 -24 117
-118 23
-118 -24
-23 24 118
-119 -117
-119 -118
117 118 119
-120 23
-120 24
-23 -24 120
-121 116
-121 -119
-116 119 121
-122 -116
-122 119
116 -119 122
-123 -121
-123 -122
121 122 123
-124 -116
-124 -119
116 119 124
-125 -120
-125 -124
120 124 125
-126 -24
-126 25
24 -25 126
-127 24
-127 -25
-24 25 127
-128 -126
-128 -127
126 127 128
-129 24
-129 25
-24 -25 129
-130 125
-130 -128
-125 128 130
-131 -125
-131 128
125 -128 131
-132 -130
-132 -131
130 131 132
-133 -125
-133 -128
125 128 133
-134 -129
-134 -133
129 133 134
-135 -25
-135 26
25 -26 135
-136 25
-136 -26
-25 26 136
-137 -135
-137 -136
135 136 137
-138 25
-138 26
-25 -26 138
-139 134
-139 -137
-134 137 139
-140 -134
-140 137
134 -137 140
-141 -139
-141 -140
139 140 141
-142 -134
-142 -137
134 137 142
-143 -138
-143 -142
138 142 143
-144 -26
-144 27
26 -27 144
-145 26
-145 -27
-26 27 145
-146 -144
-146 -145
144 145 146
-147 26
-147 27
-26 -27 147
-148 143
-148 -146
-143 146 148
-149 -143
-149 146
143 -146 149
-150 -148
-150 -149
148 149 150
-151 -143
-151 -146
143 146 151
-152 -147
-152 -151
147 151 152
-153 -27
-153 28
27 -28 153
-154 27
-154 -28
-27 28 154
-155 -153
-155 -154
153 154 155
-156 27
-156 28
-27 -28 156
-157 152
-157 -155
-152 155 157
-158 -152
-158 155
152 -155 158
-159 -157
-159 -158
157 158 159
-160 -152
-160 -155
152 155 160
-161 -156
-161 -160
156 160 161
-162 -28
-162 29
28 -29 162
-163 28
-163 -29
-28 29 163
-164 -162
-164 -163
162 163 164
-165 28
-165 29
-28 -29 165
-166 161
-166 -164
-161 164 166
-167 -161
-167 164
161 -164 167
-168 -166
-168 -167
166 167 168
-169 -161
-169 -164
161 164 169
-170 -165
-170 -169
165 169 170
-171 -29
-171 30
29 -30 171
-172 29
-172 -30
-29 30 172
-173 -171
-173 -172
171 172 173
-174 29
-174 30
-29 -30 174
-175 170
-175 -173
-170 173 175
-176 -170
-176 173
170 -173 176
-177 -175
-177 -176
175 176 177
-178 -170
-178 -173
170 173 178
-179 -174
-179 -178
174 178 179
-180 -30
-180 31
30 -31 180
-181 30
-181 -31
-30 31 181
-182 -180
-182 -181
180 181 182
-183 30
-183 31
-30 -31 183
-184 179
-184 -182
-179 182 184
-185 -179
-185 182
179 -182 185
-186 -184
-186 -185
184 185 186
-187 -179
-187 -182
179 182 187
-188 -183
-188 -187
183 187 188
-189 -31
-189 32
31 -32 189
-190 31
-190 -32
-31 32 190
-191 -189
-191 -190
189 190 191
-192 31
-192 32
-31 -32 192
-193 188
-193 -191
-188 191 193
-194 -188
-194 191
188 -191 194
-195 -193
-195 -194
193 194 195
-196 -188
-196 -191
188 191 196
-197 -192
-197 -196
192 196 197
-198 -32
-198 33
32 -33 198
-199 32
-199 -33
-32 33 199
-200 -198
-200 -199
198 199 200
-201 32
-201 33
-32 -33 201
-202 197
-202 -200
-197 200 202
-203 -197
-203 200
197 -200 203
-204 -202
-204 -203
202 203 204
-205 -197
-205 -200
197 200 205
-206 -201
-206 -205
201 205 206
-207 -33
-207 34
33 -34 207
-208 33
-208 -34
-33 34 208
-209 -207
-209 -208
207 208 209
-210 33
-210 34
-33 -34 210
-211 206
-211 -209
-206 209 211
-212 -206
-212 209
206 -209 212
-213 -211
-213 -212
211 212 213
-214 -206
-214 -209
206 209 214
-215 -210
-215 -214
210 214 215
-216 -34
-216 35
34 -35 216
-217 34
-217 -35
-34 35 217
-218 -216
-218 -217
216 217 218
-219 34
-219 35
-34 -35 219
-220 215
-220 -218
-215 218 220
-221 -215
-221 218
215 -218 221
-222 -220
-222 -221
220 221 222
-223 -215
-223 -218
215 218 223
-224 -219
-224 -223
219 223 224
-225 -35
-225 36
35 -36 225
-226 35
-226 -36
-35 36 226
-227 -225
-227 -226
225 226 227
-228 35
-228 36
-35 -36 228
-229 224
-229 -227
-224 227 229
-230 -224
-230 227
224 -227 230
-231 -229
-231 -230
229 230 231
-232 -224
-232 -227
224 227 232
-233 -228
-233 -232
228 232 233
-234 -36
-234 37
36 -37 234
-235 36
-235 -37
-36 37 235
-236 -234
-236 -235
234 235 236
-237 36
-237 37
-36 -37 237
-238 233
-238 -236
-233 236 238
-239 -233
-239 236
233 -236 239
-240 -238
-240 -239
238 239 240
-241 -233
-241 -236
233 236 241
-242 -237
-242 -241
237 241 242
-243 -37
-243 38
37 -38 243
-244 37
-244 -38
-37 38 244
-245 -243
-245 -244
243 244 245
-246 37
-246 38
-37 -38 246
-247 242
-247 -245
-242 245 247
-248 -242
-248 245
242 -245 248
-249 -247
-249 -248
247 248 249
-250 -242
-250 -245
242 245 250
-251 -246
-251 -250
246 250 251
-252 -38
-252 39
38 -39 252
-253 38
-253 -39
-38 39 253
-254 -252
-254 -253
252 253 254
-255 38
-255 39
-38 -39 255
-256 251
-256 -254
-251 254 256
-257 -251
-257 254
251 -254 257
-258 -256
-258 -257
256 257 258
-259 -251
-259 -254
251 254 259
-260 -255
-260 -259
255 259 260
-261 -39
-261 40
39 -40 261
-262 39
-262 -40
-39 40 262
-263 -261
-263 -262
261 262 263
-264 39
-264 40
-39 -40 264
-265 260
-265 -263
-260 263 265
-266 -260
-266 263
260 -263 266
-267 -265
-267 -266
265 266 267
-268 -260
-268 -263
260 263 268
-269 -264
-269 -268
264 268 269
-270 -40
-270 41
40 -41 270
-271 40
-271 -41
-40 41 271
-272 -270
-272 -271
270 271 272
-273 40
-273 41
-40 -41 273
-274 269
-274 -272
-269 272 274
-275 -269
-275 272
269 -272 275
-276 -274
-276 -275
274 275 276
-277 -269
-277 -272
269 272 277
-278 -273
-278 -277
273 277 278
-279 -41
-279 42
41 -42 279
-280 41
-280 -42
-41 42 280
-281 -279
-281 -280
279 280 281
-282 41
-282 42
-41 -42 282
-283 278
-283 -281
-278 281 283
-284 -278
-284 281
278 -281 284
-285 -283
-285 -284
283 284 285
-286 -278
-286 -281
278 281 286
-287 -282
-287 -286
282 286 287
-288 -42
-288 43
42 -43 288
-289 42
-289 -43
-42 43 289
-290 -288
-290 -289
288 289 290
-291 42
-291 43
-42 -43 291
-292 287
-292 -290
-287 290 292
-293 -287
-293 290
287 -290 293
-294 -292
-294 -293
292 293 294
-295 -287
-295 -290
287 290 295
-296 -291
-296 -295
291 295 296
-297 -43
-297 44
43 -44 297
-298 43
-298 -44
-43 44 298
-299 -297
-299 -298
297 298 299
-300 43
-300 44
-43 -44 300
-301 296
-301 -299
-296 299 301
-302 -296
-302 299
296 -299 302
-303 -301
-303 -302
301 302 303
-304 -296
-304 -299
296 299 304
-305 -300
-305 -304
300 304 305
-306 -44
-306 45
44 -45 306
-307 44
-307 -45
-44 45 307
-308 -306
-308 -307
306 307 308
-309 44
-309 45
-44 -45 309
-310 305
-310 -308
-305 308 310
-311 -305
-311 308
305 -308 311
-312 -310
-312 -311
310 311 312
-313 -305
-313 -308
305 308 313
-314 -309
-314 -313
309 313 314
-315 -45
-315 46
45 -46 315
-316 45
-316 -46
-45 46 316
-317 -315
-317 -316
315 316 317
-318 45
-318 46
-45 -46 318
-319 314
-319 -317
-314 317 319
-320 -314
-320 317
314 -317 320
-321 -319
-321 -320
319 320 321
-322 -314
-322 -317
314 317 322
-323 -318
-323 -322
318 322 323
-324 -46
-324 47
46 -47 324
-325 46
-325 -47
-46 47 325
-326 -324
-326 -325
324 325 326
-327 46
-327 47
-46 -47 327
-328 323
-328 -326
-323 326 328
-329 -323
-329 326
323 -326 329
-330 -328
-330 -329
328 329 330
-331 -323
-331 -326
323 326 331
-332 -327
-332 -331
327 331 332
-333 -47
-333 48
47 -48 333
-334 47
-334 -48
-47 48 334
-335 -333
-335 -334
333 334 335
-336 47
-336 48
-47 -48 336
-337 332
-337 -335
-332 335 337
-338 -332
-338 335
332 -335 338
-339 -337
-339 -338
337 338 339
-340 -332
-340 -335
332 335 340
-341 -336
-341 -340
336 340 341
-342 -48
-342 49
48 -49 342
-343 48
-343 -49
-48 49 343
-344 -342
-344 -343
342 343 344
-345 48
-345 49
-48 -49 345
-346 341
-346 -344
-341 344 346
-347 -341
-347 344
341 -344 347
-348 -346
-348 -347
346 347 348
-349 -341
-349 -344
341 344 349
-350 -345
-350 -349
345 349 350
-351 -49
-351 50
49 -50 351
-352 49
-352 -50
-49 50 352
-353 -351
-353 -352
351 352 353
-354 49
-354 50
-49 -50 354
-355 350
-355 -353
-350 353 355
-356 -350
-356 353
350 -353 356
-357 -355
-357 -356
355 356 357
-358 -350
-358 -353
350 353 358
-359 -354
-359 -358
354 358 359
-360 19
-360 -87
-19 87 360
-361 -19
-361 21
19 -21 361
-362 -360
-362 -361
360 361 362
-363 19
-363 -96
-19 96 363
-364 -19
-364 22
19 -22 364
-365 -363
-365 -364
363 364 365
-366 19
-366 -105
-19 105 366
-367 -19
-367 23
19 -23 367
-368 -366
-368 -367
366 367 368
-369 19
-369 -114
-19 114 369
-370 -19
-370 24
19 -24 370
-371 -369
-371 -370
369 370 371
-372 19
-372 -123
-19 123 372
-373 -19
-373 25
19 -25 373
-374 -372
-374 -373
372 373 374
-375 19
-375 -132
-19 132 375
-376 -19
-376 26
19 -26 376
-377 -375
-377 -376
375 376 377
-378 19
-378 -141
-19 141 378
-379 -19
-379 27
19 -27 379
-380 -378
-380 -379
378 379 380
-381 19
-381 -150
-19 150 381
-382 -19
-382 28
19 -28 382
-383 -381
-383 -382
381 382 383
-384 19
-384 -159
-19 159 384
-385 -19
-385 29
19 -29 385
-386 -384
-386 -385
384 385 386
-387 19
-387 -168
-19 168 387
-388 -19
-388 30
19 -30 388
-389 -387
-389 -388
387 388 389
-390 19
-390 -177
-19 177 390
-391 -19
-391 31
19 -31 391
-392 -390
-392 -391
390 391 392
-393 19
-393 -186
-19 186 393
-394 -19
-394 32
19 -32 394
-395 -393
-395 -394
393 394 395
-396 19
-396 -195
-19 195 396
-397 -19
-397 33
19 -33 397
-398 -396
-398 -397
396 397 398
-399 19
-399 -204
-19 204 399
-400 -19
-400 34
19 -34 400
-401 -399
-401 -400
399 400 401
-402 19
-402 -213
-19 213 402
-403 -19
-403 35
19 -35 403
-404 -402
-404 -403
402 403 404
-405 19
-405 -222
-19 222 405
-406 -19
-406 36
19 -36 406
-407 -405
-407 -406
405 406 407
-408 19
-408 -231
-19 231 408
-409 -19
-409 37
19 -37 409
-410 -408
-410 -409
408 409 410
-411 19
-411 -240
-19 240 411
-412 -19
-412 38
19 -38 412
-413 -411
-413 -412
411 412 413
-414 19
-414 -249
-19 249 414
-415 -19
-415 39
19 -39 415
-416 -414
-416 -415
414 415 416
-417 19
-417 -258
-19 258 417
-418 -19
-418 40
19 -40 418
-419 -417
-419 -418
417 418 419
-420 19
-420 -267
-19 267 420
-421 -19
-421 41
19 -41 421
-422 -420
-422 -421
420 421 422
-423 19
-423 -276
-19 276 423
-424 -19
-424 42
19 -42 424
-425 -423
-425 -424
423 424 425
-426 19
-426 -285
-19 285 426
-427 -19
-427 43
19 -43 427
-428 -426
-428 -427
426 427 428
-429 19
-429 -294
-19 294 429
-430 -19
-430 44
19 -44 430
-431 -429
-431 -430
429 430 431
-432 19
-432 -303
-19 303 432
-433 -19
-433 45
19 -45 433
-434 -432
-434 -433
432 433 434
-435 19
-435 -312
-19 312 435
-436 -19
-436 46
19 -46 436
-437 -435
-437 -436
435 436 437
-438 19
-438 -321
-19 321 438
-439 -19
-439 47
19 -47 439
-440 -438
-440 -439
438 439 440
-441 19
-441 -330
-19 330 441
-442 -19
-442 48
19 -48 442
-443 -441
-443 -442
441 442 443
-444 19
-444 -339
-19 339 444
-445 -19
-445 49
19 -49 445
-446 -444
-446 -445
444 445 446
-447 19
-447 -348
-19 348 447
-448 -19
-448 50
19 -50 448
-449 -447
-449 -448
447 448 449
-450 19
-450 -357
-19 357 450
-451 1
-451 80
-1 -80 451
-452 -80
-452 81
80 -81 452
-453 -451
-453 -452
451 452 453
-454 2
-454 80
-2 -80 454
-455 -80
-455 -362
80 362 455
-456 -454
-456 -455
454 455 456
-457 3
-457 80
-3 -80 457
-458 -80
-458 -365
80 365 458
-459 -457
-459 -458
457 458 459
-460 4
-460 80
-4 -80 460
-461 -80
-461 -368
80 368 461
-462 -460
-462 -461
460 461 462
-463 5
-463 80
-5 -80 463
-464 -80
-464 -371
80 371 464
-465 -463
-465 -464
463 464 465
-466 6
-466 80
-6 -80 466
-467 -80
-467 -374
80 374 467
-468 -466
-468 -467
466 467 468
-469 7
-469 80
-7 -80 469
-470 -80
-470 -377
80 377 470
-471 -469
-471 -470
469 470 471
-472 8
-472 80
-8 -80 472
-473 -80
-473 -380
80 380 473
-474 -472
-474 -473
472 473 474
-475 9
-475 80
-9 -80 475
-476 -80
-476 -383
80 383 476
-477 -475
-477 -476
475 476 477
-478 10
-478 80
-10 -80 478
-479 -80
-479 -386
80 386 479
-480 -478
-480 -479
478 479 480
-481 11
-481 80
-11 -80 481
-482 -80
-482 -389
80 389 482
-483 -481
-483 -482
481 482 483
-484 12
-484 80
-12 -80 484
-485 -80
-485 -392
80 392 485
-486 -484
-486 -485
484 485 486
-487 13
-487 80
-13 -80 487
-488 -80
-488 -395
80 395 488
-489 -487
-489 -488
487 488 489
-490 14
-490 80
-14 -80 490
-491 -80
-491 -398
80 398 491
-492 -490
-492 -491
490 491 492
-493 15
-493 80
-15 -80 493
-494 -80
-494 -401
80 401 494
-495 -493
-495 -494
493 494 495
-496 16
-496 80
-16 -80 496
-497 -80
-497 -404
80 404 497
-498 -496
-498 -497
496 497 498
-499 17
-499 80
-17 -80 499
-500 -80
-500 -407
80 407 500
-501 -499
-501 -500
499 500 501
-502 18
-502 80
-18 -80 502
-503 -80
-503 -410
80 410 503
-504 -502
-504 -503
502 503 504
-505 -80
-505 -413
80 413 505
-506 -80
-506 -416
80 416 506
-507 -80
-507 -419
80 419 507
-508 -80
-508 -422
80 422 508
-509 -80
-509 -425
80 425 509
-510 -80
-510 -428
80 428 510
-511 -80
-511 -431
80 431 511
-512 -80
-512 -434
80 434 512
-513 -80
-513 -437
80 437 513
-514 -80
-514 -440
80 440 514
-515 -80
-515 -443
80 443 515
-516 -80
-516 -446
80 446 516
-517 -80
-517 -449
80 449 517
-518 -80
-518 450
80 -450 518
-519 -50
-519 359
50 -359 519
-520 19
-520 -519
-19 519 520
520
